(set-logic LRA)

; function with constraints
(synth-fun rig_mimic ((Pregnancies Real) (Glucose Real) (BloodPressure Real) (SkinThickness Real) (Insulin Real) (BodyMassIndex Real) (DiabetesPedigreeFunction Real) (Age Real)) Bool
	    
; grammar - B Bool and R Real are "non-terminals" that are declared to be used in the grammar
	((B Bool) (BC Bool) (P Real) (G Real) (BP Real) (ST Real) (I Real) (BMI Real) (DPF Real) (A Real) (PC Bool) (GC Bool) (BPC Bool) (STC Bool) (IC Bool) (BMIC Bool) (DPFC Bool) (AC Bool))

	    (
			
			(B Bool ((Constant Bool) PC GC BPC STC IC BMIC DPFC AC (ite BC B B) ))
			(BC Bool (PC GC BPC STC IC BMIC DPFC AC))
			(P Real (3.8450520833333335 0.0 1.0 3.0 6.0 17.0)) (G Real (121.68676277850591 44.0 99.75 117.0 140.25 199.0)) (BP Real (72.40518417462482 24.0 64.0 72.20259208731241 80.0 122.0)) (ST Real (29.15341959334565 7.0 25.0 29.153419593345657 32.0 99.0))
			(I Real (155.54822335025383 14.0 121.5 155.5482233502538 155.5482233502538 846.0)) (BMI Real (32.457463672391015 18.2 27.5 32.4 36.6 67.1)) (DPF Real (0.47187630208333325 0.078 0.24375 0.3725 0.62625 2.42))
			(A Real (33.240885416666664 21.0 24.0 29.0 41.0 81.0))
			(PC Bool ((<= P Pregnancies)(>= P Pregnancies))) (GC Bool ((<= G Glucose)(>= G Glucose))) (BPC Bool ((<= BP BloodPressure)(>= BP BloodPressure)))
			(STC Bool ((<= ST SkinThickness)(>= ST SkinThickness))) (IC Bool ((<= I Insulin)(>= I Insulin))) (BMIC Bool ((<= BMI BodyMassIndex)(>= BMI BodyMassIndex)))
			(DPFC Bool ((<= DPF DiabetesPedigreeFunction)(>= DPF DiabetesPedigreeFunction))) (AC Bool ((<= A Age)(>= A Age)))

	    )
)



; Each patient data-outcome pair is a constraint
(constraint (= (rig_mimic 10.0000 129.0000 62.0000 36.0000 155.5482 41.2000 0.4410 38.0000) true))
(constraint (= (rig_mimic 0.0000 162.0000 76.0000 56.0000 100.0000 53.2000 0.7590 25.0000) true))
(constraint (= (rig_mimic 1.0000 119.0000 88.0000 41.0000 170.0000 45.3000 0.5070 26.0000) false))
(constraint (= (rig_mimic 9.0000 164.0000 84.0000 21.0000 155.5482 30.8000 0.8310 32.0000) true))
(constraint (= (rig_mimic 4.0000 129.0000 86.0000 20.0000 270.0000 35.1000 0.2310 23.0000) false))
(constraint (= (rig_mimic 6.0000 124.0000 72.0000 29.1534 155.5482 27.6000 0.3680 29.0000) true))
(constraint (= (rig_mimic 1.0000 126.0000 60.0000 29.1534 155.5482 30.1000 0.3490 47.0000) true))
(constraint (= (rig_mimic 0.0000 114.0000 80.0000 34.0000 285.0000 44.2000 0.1670 27.0000) false))
(constraint (= (rig_mimic 0.0000 100.0000 88.0000 60.0000 110.0000 46.8000 0.9620 31.0000) false))
(constraint (= (rig_mimic 0.0000 128.0000 68.0000 19.0000 180.0000 30.5000 1.3910 25.0000) true))
(constraint (= (rig_mimic 2.0000 119.0000 72.4052 29.1534 155.5482 19.6000 0.8320 72.0000) false))
(constraint (= (rig_mimic 5.0000 99.0000 54.0000 28.0000 83.0000 34.0000 0.4990 30.0000) false))
(constraint (= (rig_mimic 4.0000 110.0000 76.0000 20.0000 100.0000 28.4000 0.1180 27.0000) false))
(constraint (= (rig_mimic 4.0000 141.0000 74.0000 29.1534 155.5482 27.6000 0.2440 40.0000) false))
(constraint (= (rig_mimic 10.0000 162.0000 84.0000 29.1534 155.5482 27.7000 0.1820 54.0000) false))
(constraint (= (rig_mimic 4.0000 115.0000 72.0000 29.1534 155.5482 28.9000 0.3760 46.0000) true))
(constraint (= (rig_mimic 7.0000 147.0000 76.0000 29.1534 155.5482 39.4000 0.2570 43.0000) true))
(constraint (= (rig_mimic 4.0000 84.0000 90.0000 23.0000 56.0000 39.5000 0.1590 25.0000) false))
(constraint (= (rig_mimic 4.0000 92.0000 80.0000 29.1534 155.5482 42.2000 0.2370 29.0000) false))
(constraint (= (rig_mimic 5.0000 85.0000 74.0000 22.0000 155.5482 29.0000 1.2240 32.0000) true))
(constraint (= (rig_mimic 1.0000 80.0000 55.0000 29.1534 155.5482 19.1000 0.2580 21.0000) false))
(constraint (= (rig_mimic 7.0000 137.0000 90.0000 41.0000 155.5482 32.0000 0.3910 39.0000) false))
(constraint (= (rig_mimic 0.0000 78.0000 88.0000 29.0000 40.0000 36.9000 0.4340 21.0000) false))
(constraint (= (rig_mimic 3.0000 80.0000 72.4052 29.1534 155.5482 32.4575 0.1740 22.0000) false))
(constraint (= (rig_mimic 1.0000 114.0000 66.0000 36.0000 200.0000 38.1000 0.2890 21.0000) false))
(constraint (= (rig_mimic 9.0000 140.0000 94.0000 29.1534 155.5482 32.7000 0.7340 45.0000) true))
(constraint (= (rig_mimic 4.0000 117.0000 62.0000 12.0000 155.5482 29.7000 0.3800 30.0000) true))
(constraint (= (rig_mimic 10.0000 179.0000 70.0000 29.1534 155.5482 35.1000 0.2000 37.0000) false))
(constraint (= (rig_mimic 11.0000 120.0000 80.0000 37.0000 150.0000 42.3000 0.7850 48.0000) true))
(constraint (= (rig_mimic 10.0000 115.0000 98.0000 29.1534 155.5482 24.0000 1.0220 34.0000) false))
(constraint (= (rig_mimic 4.0000 151.0000 90.0000 38.0000 155.5482 29.7000 0.2940 36.0000) false))
(constraint (= (rig_mimic 6.0000 129.0000 90.0000 7.0000 326.0000 19.6000 0.5820 60.0000) false))
(constraint (= (rig_mimic 1.0000 90.0000 62.0000 18.0000 59.0000 25.1000 1.2680 25.0000) false))
(constraint (= (rig_mimic 8.0000 186.0000 90.0000 35.0000 225.0000 34.5000 0.4230 37.0000) true))
(constraint (= (rig_mimic 2.0000 99.0000 52.0000 15.0000 94.0000 24.6000 0.6370 21.0000) false))
(constraint (= (rig_mimic 1.0000 135.0000 54.0000 29.1534 155.5482 26.7000 0.6870 62.0000) false))
(constraint (= (rig_mimic 2.0000 90.0000 68.0000 42.0000 155.5482 38.2000 0.5030 27.0000) true))
(constraint (= (rig_mimic 5.0000 158.0000 70.0000 29.1534 155.5482 29.8000 0.2070 63.0000) false))
(constraint (= (rig_mimic 5.0000 128.0000 80.0000 29.1534 155.5482 34.6000 0.1440 45.0000) false))
(constraint (= (rig_mimic 15.0000 136.0000 70.0000 32.0000 110.0000 37.1000 0.1530 43.0000) true))
(constraint (= (rig_mimic 7.0000 142.0000 60.0000 33.0000 190.0000 28.8000 0.6870 61.0000) false))
(constraint (= (rig_mimic 3.0000 174.0000 58.0000 22.0000 194.0000 32.9000 0.5930 36.0000) true))
(constraint (= (rig_mimic 11.0000 155.0000 76.0000 28.0000 150.0000 33.3000 1.3530 51.0000) true))
(constraint (= (rig_mimic 8.0000 151.0000 78.0000 32.0000 210.0000 42.9000 0.5160 36.0000) true))
(constraint (= (rig_mimic 10.0000 92.0000 62.0000 29.1534 155.5482 25.9000 0.1670 31.0000) false))
(constraint (= (rig_mimic 0.0000 117.0000 72.4052 29.1534 155.5482 33.8000 0.9320 44.0000) false))
(constraint (= (rig_mimic 3.0000 90.0000 78.0000 29.1534 155.5482 42.7000 0.5590 21.0000) false))
(constraint (= (rig_mimic 2.0000 121.0000 70.0000 32.0000 95.0000 39.1000 0.8860 23.0000) false))
(constraint (= (rig_mimic 11.0000 138.0000 76.0000 29.1534 155.5482 33.2000 0.4200 35.0000) false))
(constraint (= (rig_mimic 0.0000 117.0000 80.0000 31.0000 53.0000 45.2000 0.0890 24.0000) false))
(constraint (= (rig_mimic 5.0000 189.0000 64.0000 33.0000 325.0000 31.2000 0.5830 29.0000) true))
(constraint (= (rig_mimic 10.0000 101.0000 76.0000 48.0000 180.0000 32.9000 0.1710 63.0000) false))
(constraint (= (rig_mimic 1.0000 95.0000 60.0000 18.0000 58.0000 23.9000 0.2600 22.0000) false))
(constraint (= (rig_mimic 6.0000 134.0000 70.0000 23.0000 130.0000 35.4000 0.5420 29.0000) true))
(constraint (= (rig_mimic 5.0000 115.0000 76.0000 29.1534 155.5482 31.2000 0.3430 44.0000) true))
(constraint (= (rig_mimic 0.0000 99.0000 72.4052 29.1534 155.5482 25.0000 0.2530 22.0000) false))
(constraint (= (rig_mimic 2.0000 84.0000 50.0000 23.0000 76.0000 30.4000 0.9680 21.0000) false))
(constraint (= (rig_mimic 4.0000 127.0000 88.0000 11.0000 155.0000 34.5000 0.5980 28.0000) false))
(constraint (= (rig_mimic 2.0000 112.0000 66.0000 22.0000 155.5482 25.0000 0.3070 24.0000) false))
(constraint (= (rig_mimic 1.0000 103.0000 80.0000 11.0000 82.0000 19.4000 0.4910 22.0000) false))
(constraint (= (rig_mimic 1.0000 93.0000 56.0000 11.0000 155.5482 22.5000 0.4170 22.0000) false))
(constraint (= (rig_mimic 1.0000 97.0000 66.0000 15.0000 140.0000 23.2000 0.4870 22.0000) false))
(constraint (= (rig_mimic 1.0000 97.0000 70.0000 15.0000 155.5482 18.2000 0.1470 21.0000) false))
(constraint (= (rig_mimic 3.0000 84.0000 68.0000 30.0000 106.0000 31.9000 0.5910 25.0000) false))
(constraint (= (rig_mimic 8.0000 167.0000 106.0000 46.0000 231.0000 37.6000 0.1650 43.0000) true))
(constraint (= (rig_mimic 5.0000 117.0000 86.0000 30.0000 105.0000 39.1000 0.2510 42.0000) false))
(constraint (= (rig_mimic 12.0000 106.0000 80.0000 29.1534 155.5482 23.6000 0.1370 44.0000) false))
(constraint (= (rig_mimic 0.0000 131.0000 88.0000 29.1534 155.5482 31.6000 0.7430 32.0000) true))
(constraint (= (rig_mimic 1.0000 107.0000 50.0000 19.0000 155.5482 28.3000 0.1810 29.0000) false))
(constraint (= (rig_mimic 8.0000 108.0000 70.0000 29.1534 155.5482 30.5000 0.9550 33.0000) true))
(constraint (= (rig_mimic 7.0000 142.0000 90.0000 24.0000 480.0000 30.4000 0.1280 43.0000) true))
(constraint (= (rig_mimic 10.0000 161.0000 68.0000 23.0000 132.0000 25.5000 0.3260 47.0000) true))
(constraint (= (rig_mimic 2.0000 108.0000 62.0000 10.0000 278.0000 25.3000 0.8810 22.0000) false))
(constraint (= (rig_mimic 2.0000 105.0000 75.0000 29.1534 155.5482 23.3000 0.5600 53.0000) false))
(constraint (= (rig_mimic 6.0000 91.0000 72.4052 29.1534 155.5482 29.8000 0.5010 31.0000) false))
(constraint (= (rig_mimic 0.0000 104.0000 64.0000 37.0000 64.0000 33.6000 0.5100 22.0000) true))
(constraint (= (rig_mimic 0.0000 132.0000 78.0000 29.1534 155.5482 32.4000 0.3930 21.0000) false))
(constraint (= (rig_mimic 1.0000 89.0000 24.0000 19.0000 25.0000 27.8000 0.5590 21.0000) false))
(constraint (= (rig_mimic 2.0000 75.0000 64.0000 24.0000 55.0000 29.7000 0.3700 33.0000) false))
(constraint (= (rig_mimic 2.0000 100.0000 54.0000 28.0000 105.0000 37.8000 0.4980 24.0000) false))
(constraint (= (rig_mimic 2.0000 197.0000 70.0000 45.0000 543.0000 30.5000 0.1580 53.0000) true))
(constraint (= (rig_mimic 0.0000 138.0000 60.0000 35.0000 167.0000 34.6000 0.5340 21.0000) true))
(constraint (= (rig_mimic 0.0000 98.0000 82.0000 15.0000 84.0000 25.2000 0.2990 22.0000) false))
(constraint (= (rig_mimic 6.0000 151.0000 62.0000 31.0000 120.0000 35.5000 0.6920 28.0000) false))
(constraint (= (rig_mimic 1.0000 126.0000 56.0000 29.0000 152.0000 28.7000 0.8010 21.0000) false))
(constraint (= (rig_mimic 1.0000 88.0000 78.0000 29.0000 76.0000 32.0000 0.3650 29.0000) false))
(constraint (= (rig_mimic 6.0000 114.0000 88.0000 29.1534 155.5482 27.8000 0.2470 66.0000) false))
(constraint (= (rig_mimic 3.0000 112.0000 74.0000 30.0000 155.5482 31.6000 0.1970 25.0000) true))
(constraint (= (rig_mimic 2.0000 92.0000 76.0000 20.0000 155.5482 24.2000 1.6980 28.0000) false))
(constraint (= (rig_mimic 3.0000 150.0000 76.0000 29.1534 155.5482 21.0000 0.2070 37.0000) false))
(constraint (= (rig_mimic 0.0000 107.0000 76.0000 29.1534 155.5482 45.3000 0.6860 24.0000) false))
(constraint (= (rig_mimic 1.0000 172.0000 68.0000 49.0000 579.0000 42.4000 0.7020 28.0000) true))
(constraint (= (rig_mimic 2.0000 111.0000 60.0000 29.1534 155.5482 26.2000 0.3430 23.0000) false))
(constraint (= (rig_mimic 8.0000 179.0000 72.0000 42.0000 130.0000 32.7000 0.7190 36.0000) true))
(constraint (= (rig_mimic 6.0000 119.0000 50.0000 22.0000 176.0000 27.1000 1.3180 33.0000) true))
(constraint (= (rig_mimic 8.0000 100.0000 76.0000 29.1534 155.5482 38.7000 0.1900 42.0000) false))
(constraint (= (rig_mimic 2.0000 123.0000 48.0000 32.0000 165.0000 42.1000 0.5200 26.0000) false))
(constraint (= (rig_mimic 5.0000 147.0000 75.0000 29.1534 155.5482 29.9000 0.4340 28.0000) false))
(constraint (= (rig_mimic 2.0000 94.0000 76.0000 18.0000 66.0000 31.6000 0.6490 23.0000) false))
(constraint (= (rig_mimic 2.0000 155.0000 52.0000 27.0000 540.0000 38.7000 0.2400 25.0000) true))
(constraint (= (rig_mimic 0.0000 97.0000 64.0000 36.0000 100.0000 36.8000 0.6000 25.0000) false))
(constraint (= (rig_mimic 13.0000 104.0000 72.0000 29.1534 155.5482 31.2000 0.4650 38.0000) true))
(constraint (= (rig_mimic 1.0000 79.0000 75.0000 30.0000 155.5482 32.0000 0.3960 22.0000) false))
(constraint (= (rig_mimic 1.0000 105.0000 58.0000 29.1534 155.5482 24.3000 0.1870 21.0000) false))
(constraint (= (rig_mimic 6.0000 148.0000 72.0000 35.0000 155.5482 33.6000 0.6270 50.0000) true))
(constraint (= (rig_mimic 1.0000 173.0000 74.0000 29.1534 155.5482 36.8000 0.0880 38.0000) true))
(constraint (= (rig_mimic 0.0000 179.0000 90.0000 27.0000 155.5482 44.1000 0.6860 23.0000) true))
(constraint (= (rig_mimic 0.0000 140.0000 65.0000 26.0000 130.0000 42.6000 0.4310 24.0000) true))
(constraint (= (rig_mimic 8.0000 120.0000 78.0000 29.1534 155.5482 25.0000 0.4090 64.0000) false))
(constraint (= (rig_mimic 1.0000 97.0000 68.0000 21.0000 155.5482 27.2000 1.0950 22.0000) false))
(constraint (= (rig_mimic 0.0000 131.0000 72.4052 29.1534 155.5482 43.2000 0.2700 26.0000) true))
(constraint (= (rig_mimic 7.0000 62.0000 78.0000 29.1534 155.5482 32.6000 0.3910 41.0000) false))
(constraint (= (rig_mimic 4.0000 123.0000 62.0000 29.1534 155.5482 32.0000 0.2260 35.0000) true))
(constraint (= (rig_mimic 0.0000 126.0000 84.0000 29.0000 215.0000 30.7000 0.5200 24.0000) false))
(constraint (= (rig_mimic 0.0000 121.0000 66.0000 30.0000 165.0000 34.3000 0.2030 33.0000) true))
(constraint (= (rig_mimic 2.0000 130.0000 96.0000 29.1534 155.5482 22.6000 0.2680 21.0000) false))
(constraint (= (rig_mimic 2.0000 74.0000 72.4052 29.1534 155.5482 32.4575 0.1020 22.0000) false))
(constraint (= (rig_mimic 7.0000 97.0000 76.0000 32.0000 91.0000 40.9000 0.8710 32.0000) true))
(constraint (= (rig_mimic 9.0000 145.0000 80.0000 46.0000 130.0000 37.9000 0.6370 40.0000) true))
(constraint (= (rig_mimic 3.0000 108.0000 62.0000 24.0000 155.5482 26.0000 0.2230 25.0000) false))
(constraint (= (rig_mimic 5.0000 139.0000 80.0000 35.0000 160.0000 31.6000 0.3610 25.0000) true))
(constraint (= (rig_mimic 3.0000 116.0000 74.0000 15.0000 105.0000 26.3000 0.1070 24.0000) false))
(constraint (= (rig_mimic 5.0000 99.0000 74.0000 27.0000 155.5482 29.0000 0.2030 32.0000) false))
(constraint (= (rig_mimic 10.0000 101.0000 86.0000 37.0000 155.5482 45.6000 1.1360 38.0000) true))
(constraint (= (rig_mimic 7.0000 114.0000 76.0000 17.0000 110.0000 23.8000 0.4660 31.0000) false))
(constraint (= (rig_mimic 1.0000 125.0000 50.0000 40.0000 167.0000 33.3000 0.9620 28.0000) true))
(constraint (= (rig_mimic 2.0000 81.0000 72.0000 15.0000 76.0000 30.1000 0.5470 25.0000) false))
(constraint (= (rig_mimic 0.0000 119.0000 64.0000 18.0000 92.0000 34.9000 0.7250 23.0000) false))
(constraint (= (rig_mimic 9.0000 156.0000 86.0000 28.0000 155.0000 34.3000 1.1890 42.0000) true))
(constraint (= (rig_mimic 1.0000 125.0000 70.0000 24.0000 110.0000 24.3000 0.2210 25.0000) false))
(constraint (= (rig_mimic 11.0000 143.0000 94.0000 33.0000 146.0000 36.6000 0.2540 51.0000) true))
(constraint (= (rig_mimic 5.0000 123.0000 74.0000 40.0000 77.0000 34.1000 0.2690 28.0000) false))
(constraint (= (rig_mimic 1.0000 109.0000 58.0000 18.0000 116.0000 28.5000 0.2190 22.0000) false))
(constraint (= (rig_mimic 2.0000 108.0000 80.0000 29.1534 155.5482 27.0000 0.2590 52.0000) true))
(constraint (= (rig_mimic 6.0000 194.0000 78.0000 29.1534 155.5482 23.5000 0.1290 59.0000) true))
(constraint (= (rig_mimic 3.0000 158.0000 70.0000 30.0000 328.0000 35.5000 0.3440 35.0000) true))
(constraint (= (rig_mimic 7.0000 160.0000 54.0000 32.0000 175.0000 30.5000 0.5880 39.0000) true))
(constraint (= (rig_mimic 3.0000 89.0000 74.0000 16.0000 85.0000 30.4000 0.5510 38.0000) false))
(constraint (= (rig_mimic 4.0000 158.0000 78.0000 29.1534 155.5482 32.9000 0.8030 31.0000) true))
(constraint (= (rig_mimic 6.0000 107.0000 88.0000 29.1534 155.5482 36.8000 0.7270 31.0000) false))
(constraint (= (rig_mimic 0.0000 146.0000 82.0000 29.1534 155.5482 40.5000 1.7810 44.0000) false))
(constraint (= (rig_mimic 5.0000 166.0000 76.0000 29.1534 155.5482 45.7000 0.3400 27.0000) true))
(constraint (= (rig_mimic 1.0000 151.0000 60.0000 29.1534 155.5482 26.1000 0.1790 22.0000) false))
(constraint (= (rig_mimic 2.0000 108.0000 64.0000 29.1534 155.5482 30.8000 0.1580 21.0000) false))
(constraint (= (rig_mimic 7.0000 125.0000 86.0000 29.1534 155.5482 37.6000 0.3040 51.0000) false))
(constraint (= (rig_mimic 9.0000 122.0000 56.0000 29.1534 155.5482 33.3000 1.1140 33.0000) true))
(constraint (= (rig_mimic 0.0000 91.0000 80.0000 29.1534 155.5482 32.4000 0.6010 27.0000) false))
(constraint (= (rig_mimic 2.0000 114.0000 68.0000 22.0000 155.5482 28.7000 0.0920 25.0000) false))
(constraint (= (rig_mimic 4.0000 156.0000 75.0000 29.1534 155.5482 48.3000 0.2380 32.0000) true))
(constraint (= (rig_mimic 5.0000 136.0000 84.0000 41.0000 88.0000 35.0000 0.2860 35.0000) true))
(constraint (= (rig_mimic 3.0000 158.0000 76.0000 36.0000 245.0000 31.6000 0.8510 28.0000) true))
(constraint (= (rig_mimic 2.0000 129.0000 84.0000 29.1534 155.5482 28.0000 0.2840 27.0000) false))
(constraint (= (rig_mimic 1.0000 90.0000 62.0000 12.0000 43.0000 27.2000 0.5800 24.0000) false))
(check-synth)